NAME : amz2130.169615_165115.tour
COMMENT : Cost = 169615_165115
COMMENT : Found by LKH-AMZ [Keld Helsgaun] Sun May 11 15:07:47 2025
COMMENT : TW viol.: 0 #: 0
TYPE : TOUR
DIMENSION : 158
TOUR_SECTION
113
110
21
135
71
76
60
96
97
34
87
66
49
120
23
38
44
147
10
88
26
46
86
94
104
115
95
90
39
151
124
129
101
99
29
55
53
50
106
22
81
133
114
111
16
33
154
14
84
17
134
109
140
15
56
131
63
105
9
142
75
57
138
12
89
78
91
85
24
122
28
117
2
36
58
137
70
73
31
69
145
118
79
32
98
48
143
92
30
80
20
6
19
35
150
72
45
100
4
108
146
68
41
158
77
51
130
13
136
123
83
5
121
37
8
119
18
61
128
103
42
116
27
3
64
40
11
54
93
144
112
43
59
102
152
107
157
1
148
47
52
125
25
156
153
127
62
155
149
141
7
132
74
67
139
126
82
65
-1
EOF
